p cnf 418 1001
-1 -33 0 
1 2 33 0 
-2 -33 0 
-3 -34 0 
3 -33 34 0 
-4 -35 0 
4 -34 35 0 
-5 -36 0 
5 -35 36 0 
-6 -37 0 
6 -36 37 0 
-7 -38 0 
7 -37 38 0 
-8 -39 0 
8 -38 39 0 
-9 -40 0 
9 -39 40 0 
-10 -41 0 
10 -40 41 0 
-11 -42 0 
11 -41 42 0 
-12 -43 0 
12 -42 43 0 
-13 -44 0 
13 -43 44 0 
-14 -45 0 
14 -44 45 0 
-15 -46 0 
15 -45 46 0 
-16 -47 0 
16 -46 47 0 
-17 -48 0 
17 -47 48 0 
-18 -49 0 
18 -48 49 0 
-19 -50 0 
19 -49 50 0 
-20 -51 0 
20 -50 51 0 
-21 -52 0 
21 -51 52 0 
-22 -53 0 
22 -52 53 0 
-23 -54 0 
23 -53 54 0 
-24 -55 0 
24 -54 55 0 
-25 -56 0 
25 -55 56 0 
-26 -57 0 
26 -56 57 0 
-27 -58 0 
27 -57 58 0 
-28 -59 0 
28 -58 59 0 
-29 -60 0 
29 -59 60 0 
-30 -61 0 
30 -60 61 0 
-31 -62 0 
31 -61 62 0 
32 -62 0 
33 -34 0 
34 -35 0 
35 -36 0 
36 -37 0 
37 -38 0 
38 -39 0 
39 -40 0 
40 -41 0 
41 -42 0 
42 -43 0 
43 -44 0 
44 -45 0 
45 -46 0 
46 -47 0 
47 -48 0 
48 -49 0 
49 -50 0 
50 -51 0 
51 -52 0 
52 -53 0 
53 -54 0 
54 -55 0 
55 -56 0 
56 -57 0 
57 -58 0 
58 -59 0 
59 -60 0 
60 -61 0 
61 -62 0 
-63 122 0 
-63 -181 180 0 
-63 181 -180 0 
63 -122 0 
63 -181 -180 0 
63 181 180 0 
-64 -122 0 
-64 -180 0 
-64 -123 -121 0 
-64 123 121 0 
-64 179 182 0 
64 -182 0 
64 -121 122 0 
64 -123 121 0 
64 123 -121 0 
64 -179 180 0 
-65 -121 0 
-65 -179 0 
-65 -124 -120 0 
-65 124 120 0 
-65 178 184 0 
65 -184 0 
65 -120 121 0 
65 -124 120 0 
65 124 -120 0 
65 -178 179 0 
-66 -120 0 
-66 -178 0 
-66 -125 -119 0 
-66 125 119 0 
-66 177 186 0 
66 -186 0 
66 -119 120 0 
66 -125 119 0 
66 125 -119 0 
66 -177 178 0 
-67 -119 0 
-67 -177 0 
-67 -126 -118 0 
-67 126 118 0 
-67 176 188 0 
67 -188 0 
67 -118 119 0 
67 -126 118 0 
67 126 -118 0 
67 -176 177 0 
-68 -118 0 
-68 -176 0 
-68 -127 -117 0 
-68 127 117 0 
-68 175 190 0 
68 -190 0 
68 -117 118 0 
68 -127 117 0 
68 127 -117 0 
68 -175 176 0 
-69 -117 0 
-69 -175 0 
-69 -128 -116 0 
-69 128 116 0 
-69 174 192 0 
69 -192 0 
69 -116 117 0 
69 -128 116 0 
69 128 -116 0 
69 -174 175 0 
-70 -116 0 
-70 -174 0 
-70 -129 -115 0 
-70 129 115 0 
-70 173 194 0 
70 -194 0 
70 -115 116 0 
70 -129 115 0 
70 129 -115 0 
70 -173 174 0 
-71 -115 0 
-71 -173 0 
-71 -130 -114 0 
-71 130 114 0 
-71 172 196 0 
71 -196 0 
71 -114 115 0 
71 -130 114 0 
71 130 -114 0 
71 -172 173 0 
-72 -114 0 
-72 -172 0 
-72 -131 -113 0 
-72 131 113 0 
-72 171 198 0 
72 -198 0 
72 -113 114 0 
72 -131 113 0 
72 131 -113 0 
72 -171 172 0 
-73 -113 0 
-73 -171 0 
-73 -132 -112 0 
-73 132 112 0 
-73 170 200 0 
73 -200 0 
73 -112 113 0 
73 -132 112 0 
73 132 -112 0 
73 -170 171 0 
-74 -112 0 
-74 -170 0 
-74 -133 -111 0 
-74 133 111 0 
-74 169 202 0 
74 -202 0 
74 -111 112 0 
74 -133 111 0 
74 133 -111 0 
74 -169 170 0 
-75 -111 0 
-75 -169 0 
-75 -134 -110 0 
-75 134 110 0 
-75 168 204 0 
75 -204 0 
75 -110 111 0 
75 -134 110 0 
75 134 -110 0 
75 -168 169 0 
-76 -110 0 
-76 -168 0 
-76 -135 -109 0 
-76 135 109 0 
-76 167 206 0 
76 -206 0 
76 -109 110 0 
76 -135 109 0 
76 135 -109 0 
76 -167 168 0 
-77 -109 0 
-77 -167 0 
-77 -136 -108 0 
-77 136 108 0 
-77 166 208 0 
77 -208 0 
77 -108 109 0 
77 -136 108 0 
77 136 -108 0 
77 -166 167 0 
-78 -108 0 
-78 -166 0 
-78 -137 -107 0 
-78 137 107 0 
-78 165 210 0 
78 -210 0 
78 -107 108 0 
78 -137 107 0 
78 137 -107 0 
78 -165 166 0 
-79 -107 0 
-79 -165 0 
-79 -138 -106 0 
-79 138 106 0 
-79 164 212 0 
79 -212 0 
79 -106 107 0 
79 -138 106 0 
79 138 -106 0 
79 -164 165 0 
-80 -106 0 
-80 -164 0 
-80 -139 -105 0 
-80 139 105 0 
-80 163 214 0 
80 -214 0 
80 -105 106 0 
80 -139 105 0 
80 139 -105 0 
80 -163 164 0 
-81 -105 0 
-81 -163 0 
-81 -140 -104 0 
-81 140 104 0 
-81 162 216 0 
81 -216 0 
81 -104 105 0 
81 -140 104 0 
81 140 -104 0 
81 -162 163 0 
-82 -104 0 
-82 -162 0 
-82 -141 -103 0 
-82 141 103 0 
-82 161 218 0 
82 -218 0 
82 -103 104 0 
82 -141 103 0 
82 141 -103 0 
82 -161 162 0 
-83 -103 0 
-83 -161 0 
-83 -142 -102 0 
-83 142 102 0 
-83 160 220 0 
83 -220 0 
83 -102 103 0 
83 -142 102 0 
83 142 -102 0 
83 -160 161 0 
-84 -102 0 
-84 -160 0 
-84 -143 -101 0 
-84 143 101 0 
-84 159 222 0 
84 -222 0 
84 -101 102 0 
84 -143 101 0 
84 143 -101 0 
84 -159 160 0 
-85 -101 0 
-85 -159 0 
-85 -144 -100 0 
-85 144 100 0 
-85 158 224 0 
85 -224 0 
85 -100 101 0 
85 -144 100 0 
85 144 -100 0 
85 -158 159 0 
-86 -100 0 
-86 -158 0 
-86 -145 -99 0 
-86 145 99 0 
-86 157 226 0 
86 -226 0 
86 -99 100 0 
86 -145 99 0 
86 145 -99 0 
86 -157 158 0 
-87 -99 0 
-87 -157 0 
-87 -146 -98 0 
-87 146 98 0 
-87 156 228 0 
87 -228 0 
87 -98 99 0 
87 -146 98 0 
87 146 -98 0 
87 -156 157 0 
-88 -98 0 
-88 -156 0 
-88 -147 -97 0 
-88 147 97 0 
-88 155 230 0 
88 -230 0 
88 -97 98 0 
88 -147 97 0 
88 147 -97 0 
88 -155 156 0 
-89 -97 0 
-89 -155 0 
-89 -148 -96 0 
-89 148 96 0 
-89 154 232 0 
89 -232 0 
89 -96 97 0 
89 -148 96 0 
89 148 -96 0 
89 -154 155 0 
-90 -96 0 
-90 -154 0 
-90 -149 -95 0 
-90 149 95 0 
-90 153 234 0 
90 -234 0 
90 -95 96 0 
90 -149 95 0 
90 149 -95 0 
90 -153 154 0 
-91 -95 0 
-91 -153 0 
-91 -150 92 0 
-91 150 -92 0 
-91 152 236 0 
91 -236 0 
91 92 95 0 
91 -150 -92 0 
91 150 92 0 
91 -152 153 0 
-92 -95 0 
-92 -152 0 
-92 151 238 0 
92 -238 0 
92 -151 152 0 
-93 -151 0 
-93 -94 240 0 
93 -240 0 
93 94 151 0 
-94 -151 0 
-94 -356 0 
94 -240 0 
94 -355 356 0 
95 -96 0 
96 -97 0 
97 -98 0 
98 -99 0 
99 -100 0 
100 -101 0 
101 -102 0 
102 -103 0 
103 -104 0 
104 -105 0 
105 -106 0 
106 -107 0 
107 -108 0 
108 -109 0 
109 -110 0 
110 -111 0 
111 -112 0 
112 -113 0 
113 -114 0 
114 -115 0 
115 -116 0 
116 -117 0 
117 -118 0 
118 -119 0 
119 -120 0 
120 -121 0 
121 -122 0 
-151 -238 0 
-151 -241 0 
151 -152 0 
151 240 241 0 
-152 -236 0 
-152 -239 0 
152 -153 0 
152 238 239 0 
-153 -234 0 
-153 -237 0 
153 -154 0 
153 236 237 0 
-154 -232 0 
-154 -235 0 
154 -155 0 
154 234 235 0 
-155 -230 0 
-155 -233 0 
155 -156 0 
155 232 233 0 
-156 -228 0 
-156 -231 0 
156 -157 0 
156 230 231 0 
-157 -226 0 
-157 -229 0 
157 -158 0 
157 228 229 0 
-158 -224 0 
-158 -227 0 
158 -159 0 
158 226 227 0 
-159 -222 0 
-159 -225 0 
159 -160 0 
159 224 225 0 
-160 -220 0 
-160 -223 0 
160 -161 0 
160 222 223 0 
-161 -218 0 
-161 -221 0 
161 -162 0 
161 220 221 0 
-162 -216 0 
-162 -219 0 
162 -163 0 
162 218 219 0 
-163 -214 0 
-163 -217 0 
163 -164 0 
163 216 217 0 
-164 -212 0 
-164 -215 0 
164 -165 0 
164 214 215 0 
-165 -210 0 
-165 -213 0 
165 -166 0 
165 212 213 0 
-166 -208 0 
-166 -211 0 
166 -167 0 
166 210 211 0 
-167 -206 0 
-167 -209 0 
167 -168 0 
167 208 209 0 
-168 -204 0 
-168 -207 0 
168 -169 0 
168 206 207 0 
-169 -202 0 
-169 -205 0 
169 -170 0 
169 204 205 0 
-170 -200 0 
-170 -203 0 
170 -171 0 
170 202 203 0 
-171 -198 0 
-171 -201 0 
171 -172 0 
171 200 201 0 
-172 -196 0 
-172 -199 0 
172 -173 0 
172 198 199 0 
-173 -194 0 
-173 -197 0 
173 -174 0 
173 196 197 0 
-174 -192 0 
-174 -195 0 
174 -175 0 
174 194 195 0 
-175 -190 0 
-175 -193 0 
175 -176 0 
175 192 193 0 
-176 -188 0 
-176 -191 0 
176 -177 0 
176 190 191 0 
-177 -186 0 
-177 -189 0 
177 -178 0 
177 188 189 0 
-178 -184 0 
-178 -187 0 
178 -179 0 
178 186 187 0 
-179 -182 0 
-179 -185 0 
179 -180 0 
179 184 185 0 
-180 -183 0 
180 182 183 0 
-181 -270 -269 0 
-181 270 269 0 
181 -270 269 0 
181 270 -269 0 
-182 -183 0 
-183 -271 0 
-183 -268 269 0 
183 -269 0 
183 268 271 0 
-184 -185 0 
-185 -273 0 
-185 -267 268 0 
185 -268 0 
185 267 273 0 
-186 -187 0 
-187 -275 0 
-187 -266 267 0 
187 -267 0 
187 266 275 0 
-188 -189 0 
-189 -277 0 
-189 -265 266 0 
189 -266 0 
189 265 277 0 
-190 -191 0 
-191 -279 0 
-191 -264 265 0 
191 -265 0 
191 264 279 0 
-192 -193 0 
-193 -281 0 
-193 -263 264 0 
193 -264 0 
193 263 281 0 
-194 -195 0 
-195 -283 0 
-195 -262 263 0 
195 -263 0 
195 262 283 0 
-196 -197 0 
-197 -285 0 
-197 -261 262 0 
197 -262 0 
197 261 285 0 
-198 -199 0 
-199 -287 0 
-199 -260 261 0 
199 -261 0 
199 260 287 0 
-200 -201 0 
-201 -289 0 
-201 -259 260 0 
201 -260 0 
201 259 289 0 
-202 -203 0 
-203 -291 0 
-203 -258 259 0 
203 -259 0 
203 258 291 0 
-204 -205 0 
-205 -293 0 
-205 -257 258 0 
205 -258 0 
205 257 293 0 
-206 -207 0 
-207 -295 0 
-207 -256 257 0 
207 -257 0 
207 256 295 0 
-208 -209 0 
-209 -297 0 
-209 -255 256 0 
209 -256 0 
209 255 297 0 
-210 -211 0 
-211 -299 0 
-211 -254 255 0 
211 -255 0 
211 254 299 0 
-212 -213 0 
-213 -301 0 
-213 -253 254 0 
213 -254 0 
213 253 301 0 
-214 -215 0 
-215 -303 0 
-215 -252 253 0 
215 -253 0 
215 252 303 0 
-216 -217 0 
-217 -305 0 
-217 -251 252 0 
217 -252 0 
217 251 305 0 
-218 -219 0 
-219 -307 0 
-219 -250 251 0 
219 -251 0 
219 250 307 0 
-220 -221 0 
-221 -309 0 
-221 -249 250 0 
221 -250 0 
221 249 309 0 
-222 -223 0 
-223 -311 0 
-223 -248 249 0 
223 -249 0 
223 248 311 0 
-224 -225 0 
-225 -313 0 
-225 -247 248 0 
225 -248 0 
225 247 313 0 
-226 -227 0 
-227 -315 0 
-227 -246 247 0 
227 -247 0 
227 246 315 0 
-228 -229 0 
-229 -317 0 
-229 -245 246 0 
229 -246 0 
229 245 317 0 
-230 -231 0 
-231 -319 0 
-231 -244 245 0 
231 -245 0 
231 244 319 0 
-232 -233 0 
-233 -321 0 
-233 -243 244 0 
233 -244 0 
233 243 321 0 
-234 -235 0 
-235 -323 0 
-235 -242 243 0 
235 -243 0 
235 242 323 0 
-236 -237 0 
-237 -325 0 
-237 -239 242 0 
237 -242 0 
237 239 325 0 
-238 -239 0 
-239 -325 0 
-239 -353 354 0 
239 -242 0 
239 -354 0 
-240 -241 0 
-241 -355 0 
241 -354 355 0 
-242 -323 0 
-242 -326 0 
242 -243 0 
242 325 326 0 
-243 -321 0 
-243 -324 0 
243 -244 0 
243 323 324 0 
-244 -319 0 
-244 -322 0 
244 -245 0 
244 321 322 0 
-245 -317 0 
-245 -320 0 
245 -246 0 
245 319 320 0 
-246 -315 0 
-246 -318 0 
246 -247 0 
246 317 318 0 
-247 -313 0 
-247 -316 0 
247 -248 0 
247 315 316 0 
-248 -311 0 
-248 -314 0 
248 -249 0 
248 313 314 0 
-249 -309 0 
-249 -312 0 
249 -250 0 
249 311 312 0 
-250 -307 0 
-250 -310 0 
250 -251 0 
250 309 310 0 
-251 -305 0 
-251 -308 0 
251 -252 0 
251 307 308 0 
-252 -303 0 
-252 -306 0 
252 -253 0 
252 305 306 0 
-253 -301 0 
-253 -304 0 
253 -254 0 
253 303 304 0 
-254 -299 0 
-254 -302 0 
254 -255 0 
254 301 302 0 
-255 -297 0 
-255 -300 0 
255 -256 0 
255 299 300 0 
-256 -295 0 
-256 -298 0 
256 -257 0 
256 297 298 0 
-257 -293 0 
-257 -296 0 
257 -258 0 
257 295 296 0 
-258 -291 0 
-258 -294 0 
258 -259 0 
258 293 294 0 
-259 -289 0 
-259 -292 0 
259 -260 0 
259 291 292 0 
-260 -287 0 
-260 -290 0 
260 -261 0 
260 289 290 0 
-261 -285 0 
-261 -288 0 
261 -262 0 
261 287 288 0 
-262 -283 0 
-262 -286 0 
262 -263 0 
262 285 286 0 
-263 -281 0 
-263 -284 0 
263 -264 0 
263 283 284 0 
-264 -279 0 
-264 -282 0 
264 -265 0 
264 281 282 0 
-265 -277 0 
-265 -280 0 
265 -266 0 
265 279 280 0 
-266 -275 0 
-266 -278 0 
266 -267 0 
266 277 278 0 
-267 -273 0 
-267 -276 0 
267 -268 0 
267 275 276 0 
-268 -271 0 
-268 -274 0 
268 -269 0 
268 273 274 0 
-269 -272 0 
269 271 272 0 
270 356 0 
-271 -272 0 
-272 -327 0 
272 274 327 0 
-273 -274 0 
-274 -327 0 
-275 -276 0 
-276 -328 0 
276 -327 328 0 
-277 -278 0 
-278 -329 0 
278 -328 329 0 
-279 -280 0 
-280 -330 0 
280 -329 330 0 
-281 -282 0 
-282 -331 0 
282 -330 331 0 
-283 -284 0 
-284 -332 0 
284 -331 332 0 
-285 -286 0 
-286 -333 0 
286 -332 333 0 
-287 -288 0 
-288 -334 0 
288 -333 334 0 
-289 -290 0 
-290 -335 0 
290 -334 335 0 
-291 -292 0 
-292 -336 0 
292 -335 336 0 
-293 -294 0 
-294 -337 0 
294 -336 337 0 
-295 -296 0 
-296 -338 0 
296 -337 338 0 
-297 -298 0 
-298 -339 0 
298 -338 339 0 
-299 -300 0 
-300 -340 0 
300 -339 340 0 
-301 -302 0 
-302 -341 0 
302 -340 341 0 
-303 -304 0 
-304 -342 0 
304 -341 342 0 
-305 -306 0 
-306 -343 0 
306 -342 343 0 
-307 -308 0 
-308 -344 0 
308 -343 344 0 
-309 -310 0 
-310 -345 0 
310 -344 345 0 
-311 -312 0 
-312 -346 0 
312 -345 346 0 
-313 -314 0 
-314 -347 0 
314 -346 347 0 
-315 -316 0 
-316 -348 0 
316 -347 348 0 
-317 -318 0 
-318 -349 0 
318 -348 349 0 
-319 -320 0 
-320 -350 0 
320 -349 350 0 
-321 -322 0 
-322 -351 0 
322 -350 351 0 
-323 -324 0 
-324 -352 0 
324 -351 352 0 
-325 -326 0 
-326 -353 0 
326 -352 353 0 
327 -328 0 
328 -329 0 
329 -330 0 
330 -331 0 
331 -332 0 
332 -333 0 
333 -334 0 
334 -335 0 
335 -336 0 
336 -337 0 
337 -338 0 
338 -339 0 
339 -340 0 
340 -341 0 
341 -342 0 
342 -343 0 
343 -344 0 
344 -345 0 
345 -346 0 
346 -347 0 
347 -348 0 
348 -349 0 
349 -350 0 
350 -351 0 
351 -352 0 
352 -353 0 
353 -354 0 
354 -355 0 
355 -356 0 
-357 -389 0 
357 358 389 0 
-358 -389 0 
-359 -390 0 
359 -389 390 0 
-360 -391 0 
360 -390 391 0 
-361 -392 0 
361 -391 392 0 
-362 -393 0 
362 -392 393 0 
-363 -394 0 
363 -393 394 0 
-364 -395 0 
364 -394 395 0 
-365 -396 0 
365 -395 396 0 
-366 -397 0 
366 -396 397 0 
-367 -398 0 
367 -397 398 0 
-368 -399 0 
368 -398 399 0 
-369 -400 0 
369 -399 400 0 
-370 -401 0 
370 -400 401 0 
-371 -402 0 
371 -401 402 0 
-372 -403 0 
372 -402 403 0 
-373 -404 0 
373 -403 404 0 
-374 -405 0 
374 -404 405 0 
-375 -406 0 
375 -405 406 0 
-376 -407 0 
376 -406 407 0 
-377 -408 0 
377 -407 408 0 
-378 -409 0 
378 -408 409 0 
-379 -410 0 
379 -409 410 0 
-380 -411 0 
380 -410 411 0 
-381 -412 0 
381 -411 412 0 
-382 -413 0 
382 -412 413 0 
-383 -414 0 
383 -413 414 0 
-384 -415 0 
384 -414 415 0 
-385 -416 0 
385 -415 416 0 
-386 -417 0 
386 -416 417 0 
-387 -418 0 
387 -417 418 0 
388 -418 0 
389 -390 0 
390 -391 0 
391 -392 0 
392 -393 0 
393 -394 0 
394 -395 0 
395 -396 0 
396 -397 0 
397 -398 0 
398 -399 0 
399 -400 0 
400 -401 0 
401 -402 0 
402 -403 0 
403 -404 0 
404 -405 0 
405 -406 0 
406 -407 0 
407 -408 0 
408 -409 0 
409 -410 0 
410 -411 0 
411 -412 0 
412 -413 0 
413 -414 0 
414 -415 0 
415 -416 0 
416 -417 0 
417 -418 0 
